Na1 Pb3
1.0
4.946585 0.000000 0.000000
0.000000 4.946585 0.000000
0.000000 0.000000 4.946585
Na Pb
1 3
direct
0.000000 0.000000 0.000000 Na
0.000000 0.500000 0.500000 Pb
0.500000 0.500000 0.000000 Pb
0.500000 0.000000 0.500000 Pb
