AX:F-43m:sg=216
1.0
6.360000 0.000000 0.000000
0.000000 6.360000 0.000000
0.000000 0.000000 6.360000
Tl As
4 4
direct
0.000000 0.000000 0.000000 Tl
0.000000 0.500000 0.500000 Tl
0.500000 0.000000 0.500000 Tl
0.500000 0.500000 0.000000 Tl
0.250000 0.250000 0.250000 As
0.250000 0.750000 0.750000 As
0.750000 0.250000 0.750000 As
0.750000 0.750000 0.250000 As
