Na8 Hg8
1.0
7.300584 0.000000 0.000000
0.000000 10.866287 0.000000
0.000000 0.000000 5.396051
Na Hg
8 8
direct
0.500000 0.673663 0.750000 Na
0.500000 0.326337 0.250000 Na
0.500000 0.126085 0.750000 Na
0.500000 0.873915 0.250000 Na
0.000000 0.173663 0.750000 Na
0.000000 0.826337 0.250000 Na
0.000000 0.626085 0.750000 Na
0.000000 0.373915 0.250000 Na
0.787261 0.093723 0.250000 Hg
0.212739 0.906277 0.750000 Hg
0.787261 0.906277 0.750000 Hg
0.212739 0.093723 0.250000 Hg
0.287261 0.593723 0.250000 Hg
0.712739 0.406277 0.750000 Hg
0.287261 0.406277 0.750000 Hg
0.712739 0.593723 0.250000 Hg
