pymatgen generated KPOINTS with grid density = 525 / atom
0
Monkhorst
4 4 4
