Rb4 F4
1.0
5.738921 0.000000 0.000000
0.000000 5.738921 0.000000
0.000000 0.000000 5.738921
Rb F
4 4
direct
0.500000 0.000000 0.500000 Rb
0.500000 0.500000 0.000000 Rb
0.000000 0.000000 0.000000 Rb
0.000000 0.500000 0.500000 Rb
0.500000 0.500000 0.500000 F
0.500000 0.000000 0.000000 F
0.000000 0.500000 0.000000 F
0.000000 0.000000 0.500000 F
